InboundTrucks  = 50;
OutboundTrucks = 50;
InboundDoors   = 15;
OutboundDoors  = 15;
ReleaseTime    = [110,108,7,11,10,46,106,21,94,103,85,109,39,32,77,27,77,4,74,87,20,55,81,50,102,92,110,65,47,69,119,56,64,34,115,4,111,3,46,59,119,40,116,48,54,114,113,67,21,71];
UnloadTime     = [26,29,23,17,14,14,18,25,14,30,28,29,12,32,23,26,11,17,17,35,11,23,10,28,27,31,14,34,28,15,19,24,34,30,35,30,18,12,26,28,30,32,24,29,19,32,35,12,13,23];
LoadTime       = [7,7,17,15,9,18,7,20,7,10,6,8,7,18,7,20,6,20,13,5,6,11,10,8,7,7,12,5,12,6,12,20,15,17,20,10,14,11,17,5,18,9,6,7,13,15,18,6,17,15];
TransferTime   = [| 0,0,0,0,0,0,0,8,0,2,0,0,0,0,0,0,0,0,0,0,0,0,0,7,0,0,0,2,0,0,7,0,0,2,7,0,0,0,0,0,0,7,0,0,0,0,0,0,0,0 | 0,0,0,0,0,3,0,0,0,3,3,0,0,5,0,0,2,3,0,0,0,0,7,0,0,0,4,0,5,0,0,0,0,4,0,0,0,0,0,2,0,0,0,0,8,0,4,4,5,8 | 0,0,0,0,0,0,2,8,5,0,0,0,2,5,0,8,0,3,7,2,0,0,0,0,0,0,8,0,0,0,0,0,0,0,5,0,0,2,8,0,0,3,0,0,5,0,0,0,4,0 | 2,0,0,0,0,0,0,3,0,0,7,0,6,0,0,0,0,0,0,0,6,0,0,4,0,0,0,0,0,0,0,8,0,0,0,0,0,0,0,0,0,0,0,0,0,0,0,0,0,0 | 0,0,0,0,0,0,0,0,0,0,5,0,0,0,0,0,0,0,0,0,0,8,0,6,0,0,8,0,0,0,0,0,0,0,0,0,2,0,0,0,0,8,0,2,0,0,8,0,0,0 | 0,8,0,0,0,0,6,0,0,0,0,0,0,7,0,0,6,0,6,0,6,0,5,8,0,0,0,4,7,0,0,0,0,0,4,0,6,5,7,7,3,5,0,0,0,0,0,0,4,0 | 0,0,0,0,0,6,4,0,0,0,0,3,0,5,3,0,0,7,5,0,6,0,5,0,0,0,0,0,6,8,4,0,0,0,0,0,0,0,0,0,0,2,3,0,0,0,0,8,0,0 | 0,0,0,0,0,0,0,0,0,0,0,0,0,0,0,5,0,0,0,0,0,0,0,0,2,0,0,0,4,0,0,3,0,8,0,8,6,0,0,4,0,4,7,0,0,0,0,7,0,0 | 0,0,0,0,3,0,3,8,2,0,0,0,0,3,0,0,0,0,0,0,0,8,0,0,3,0,0,4,2,0,0,0,0,5,0,0,3,0,0,0,0,2,0,0,0,0,0,5,5,0 | 0,0,0,0,0,0,0,2,0,8,3,8,0,3,0,0,0,0,7,0,0,0,0,0,0,0,5,0,0,0,0,0,0,0,0,0,0,0,2,0,0,0,0,0,0,0,5,8,0,0 | 0,0,0,0,6,3,0,0,0,0,0,0,0,0,0,8,4,7,0,0,0,0,7,2,0,0,3,0,6,0,0,0,0,4,0,0,0,0,0,3,6,0,0,0,4,0,6,0,0,2 | 0,0,0,0,0,0,0,0,0,0,0,0,0,6,0,0,0,0,0,0,0,0,0,0,0,5,0,0,0,0,0,2,0,7,0,0,5,8,0,8,5,0,0,6,0,0,3,5,0,0 | 0,2,0,0,0,0,3,0,0,0,0,0,3,2,0,0,0,7,6,6,0,0,0,0,0,0,0,0,0,0,0,0,5,0,0,0,0,7,0,0,0,0,0,8,8,0,0,0,7,0 | 4,7,0,0,0,0,0,0,2,0,4,0,2,6,0,2,0,6,0,0,0,3,0,0,0,0,0,0,0,0,0,0,8,0,0,0,0,0,0,6,3,0,0,0,0,0,3,0,0,0 | 0,0,7,0,0,5,0,5,0,8,3,0,0,0,0,0,6,2,0,6,0,0,0,0,0,0,6,0,0,0,5,0,0,0,0,0,0,0,0,0,0,2,5,0,7,0,0,0,6,0 | 0,0,0,4,0,0,0,5,0,0,0,0,0,0,0,0,0,3,0,0,0,0,0,0,0,0,0,0,5,0,3,3,0,0,6,7,3,0,0,2,0,0,8,0,0,7,0,5,0,7 | 0,0,7,0,0,0,0,8,6,5,8,0,4,5,0,0,8,0,0,3,4,0,0,0,0,5,0,0,0,0,0,5,3,4,0,0,4,0,0,8,0,6,0,0,0,0,0,0,0,0 | 8,2,0,0,0,0,0,3,0,0,6,5,0,0,3,0,0,0,0,0,6,0,0,0,6,0,0,0,0,0,3,0,0,0,5,3,8,0,0,4,0,0,0,0,0,0,7,0,0,0 | 0,0,0,5,0,2,0,0,3,5,0,0,0,0,0,0,4,0,3,0,7,0,8,0,0,0,0,4,0,4,0,0,0,0,0,0,0,8,0,0,0,5,0,0,0,0,0,5,0,0 | 0,2,7,0,0,0,0,0,0,0,8,0,0,8,8,0,4,0,0,0,0,0,0,0,0,0,0,0,0,0,0,0,0,0,0,0,0,0,0,0,0,0,0,0,2,0,0,0,0,0 | 0,0,0,0,5,0,0,0,0,2,8,0,0,0,0,0,8,0,0,0,0,0,0,5,0,0,4,0,0,0,7,0,5,0,0,7,0,0,4,0,0,0,0,0,7,0,0,0,0,0 | 0,0,0,0,0,0,6,0,0,0,0,0,8,0,0,0,0,0,0,0,0,0,0,0,0,5,0,0,4,0,0,0,0,0,0,0,0,0,4,3,2,0,0,0,0,7,0,0,5,0 | 0,0,0,0,0,0,0,0,0,0,7,0,0,6,0,0,2,0,0,0,5,0,0,0,0,6,0,0,0,0,0,0,0,0,0,0,5,0,8,0,0,0,2,0,0,0,0,0,0,0 | 0,0,4,0,4,3,0,0,0,8,7,0,8,0,0,0,8,0,0,0,0,0,0,0,0,0,0,0,0,6,0,0,2,0,2,0,7,0,0,0,0,0,0,0,0,0,0,0,0,0 | 0,0,0,0,6,8,0,2,0,0,7,2,0,0,0,0,0,0,0,8,0,0,0,5,3,0,0,0,0,0,0,0,0,8,2,0,8,0,0,0,6,0,0,0,0,0,0,0,6,0 | 0,0,4,0,0,0,3,0,0,0,0,6,0,0,0,0,0,0,0,0,0,5,0,8,0,0,5,2,3,6,0,4,0,0,0,6,0,0,5,0,0,4,4,0,5,0,6,0,0,0 | 0,0,0,0,0,0,0,5,0,0,8,0,0,0,0,0,0,0,0,0,5,0,6,0,0,4,0,0,6,5,7,7,0,0,0,4,0,0,0,0,0,3,5,0,6,4,0,0,0,0 | 0,0,3,0,0,0,7,0,7,0,0,0,0,2,0,0,0,0,0,0,6,4,0,6,0,0,0,0,0,0,0,0,0,8,6,7,0,8,0,0,0,0,0,4,0,0,0,0,4,0 | 0,0,0,2,0,0,0,0,0,0,2,0,0,0,0,0,3,0,0,0,0,0,5,5,0,0,0,0,0,0,0,0,0,0,0,0,0,7,0,0,0,0,0,4,0,0,0,0,0,0 | 0,0,0,2,6,0,0,0,0,0,2,0,0,0,0,0,0,0,0,0,5,0,0,0,8,0,0,4,6,0,0,2,0,0,5,6,0,0,0,4,0,0,0,0,0,0,0,0,7,0 | 4,5,6,0,5,0,5,0,0,0,3,0,0,0,5,0,0,3,0,0,0,0,7,0,8,0,3,0,0,0,0,0,3,0,0,0,0,0,0,0,6,8,0,0,0,0,7,5,5,0 | 8,0,0,7,0,6,0,0,0,0,0,0,0,0,6,0,0,0,0,0,8,0,0,0,3,5,0,0,0,0,4,4,6,6,0,0,0,0,8,0,0,0,2,0,0,0,0,0,0,0 | 0,0,0,2,5,0,0,0,0,0,0,0,0,0,0,0,6,0,2,4,0,6,0,0,6,0,0,0,7,8,0,0,0,5,0,0,0,0,0,0,0,0,0,0,0,0,0,0,0,0 | 0,4,0,0,0,0,2,0,0,7,0,0,0,8,4,0,0,3,0,0,0,0,0,0,6,0,0,0,7,7,0,0,3,0,0,3,0,0,5,0,0,5,4,0,0,0,0,0,0,0 | 2,0,0,0,0,0,0,0,0,0,0,8,0,2,0,0,0,0,4,3,0,0,0,0,0,0,0,0,0,0,0,0,0,0,2,6,3,0,4,8,4,0,0,0,0,0,0,0,0,0 | 3,0,7,0,7,6,5,0,0,0,0,0,0,0,3,0,0,4,0,0,5,5,0,0,0,0,0,0,0,0,0,2,0,0,0,0,0,0,0,0,0,0,0,5,0,4,0,0,0,7 | 0,0,0,0,0,0,0,0,0,0,0,0,8,6,0,0,0,0,0,8,3,0,0,0,6,0,2,7,0,0,0,0,5,0,0,0,0,0,5,7,0,0,0,0,0,0,0,6,0,0 | 0,0,0,0,0,0,0,0,8,0,0,0,8,0,0,0,0,0,0,0,0,0,0,0,0,5,0,0,6,6,0,0,5,0,0,0,0,0,0,0,0,0,0,6,0,0,0,0,0,0 | 7,0,0,0,0,0,8,4,0,0,8,0,0,0,0,0,0,6,0,5,0,0,6,0,0,0,0,0,0,0,0,0,0,0,0,2,0,0,0,6,0,0,0,0,0,3,0,0,0,2 | 0,5,7,0,0,3,0,0,3,0,0,2,0,6,0,0,2,0,0,0,0,0,0,6,3,5,0,0,0,0,0,0,7,0,0,0,0,0,6,5,0,0,2,0,0,0,6,0,0,0 | 4,0,5,0,0,0,0,0,0,0,0,0,0,0,0,6,5,0,2,5,0,0,7,0,2,0,0,0,0,8,0,0,0,0,0,6,0,5,0,0,3,0,3,0,0,0,0,0,7,0 | 0,0,0,7,3,5,0,0,0,0,0,0,0,0,0,0,0,0,0,0,0,0,5,6,0,2,0,0,0,0,0,0,0,7,0,0,0,2,0,0,0,0,0,0,0,0,8,0,0,6 | 4,0,0,0,0,0,0,0,0,0,0,0,0,0,0,0,0,8,0,0,0,0,0,6,0,2,0,7,8,4,0,0,0,0,4,0,0,2,0,4,0,0,0,0,2,0,0,0,3,0 | 6,7,7,0,0,0,0,0,0,0,0,0,2,0,3,0,0,0,0,8,0,3,0,7,3,8,0,0,0,0,0,0,0,0,0,0,0,8,0,0,0,6,6,7,0,0,2,4,2,2 | 0,7,0,0,0,0,6,0,0,0,0,0,0,0,0,0,0,0,0,0,0,0,0,5,8,0,0,2,5,0,0,0,0,0,0,0,0,0,0,0,0,0,4,0,0,0,0,0,0,0 | 0,0,2,0,0,0,0,4,0,0,6,2,0,0,0,4,0,0,0,0,0,0,0,4,5,0,0,0,0,0,0,0,0,0,0,0,7,0,5,3,0,0,0,0,0,0,5,8,2,2 | 0,0,0,0,0,0,5,0,0,0,5,0,0,3,3,0,6,0,0,0,7,0,0,0,2,0,0,0,2,0,0,0,0,0,0,0,0,0,0,0,0,8,0,4,0,0,0,0,0,0 | 2,2,0,3,4,3,0,0,0,4,4,0,5,0,0,5,0,2,5,0,0,0,8,0,0,0,6,0,0,5,0,5,0,4,0,0,0,4,0,0,0,0,0,0,0,0,0,0,0,0 | 0,0,0,0,0,0,3,0,0,0,0,0,0,7,0,0,0,4,0,6,2,0,7,0,3,0,0,0,0,3,0,0,0,0,0,0,0,0,0,0,0,2,6,8,0,4,0,0,0,5 | 0,0,0,0,0,2,0,4,0,0,0,0,0,0,0,0,0,0,0,0,0,0,0,0,0,3,0,0,6,0,0,0,0,0,0,0,0,0,0,8,7,0,0,0,0,0,7,8,8,0 |];
